K Cl 
1
	15 0 0
	0 15 0
	0 0 40
1 1 
Cartesian
0.2785 0.5469 0.9575
0.9649 0.1576 0.9706

