 K Cl 
 1.0000000000000000
    15.0000000000000000    0.0000000000000000    0.0000000000000000
     0.0000000000000000   15.0000000000000000    0.0000000000000000
     0.0000000000000000    0.0000000000000000   40.0000000000000000
  2  2
Cartesian
 10.5331499999999991  3.4725500000000000 19.4574299999999987
  2.4427400000000001  3.6056800000000000 15.2995699999999992
  5.3217200000000000  7.0042900000000001 21.3453899999999983
 12.1486300000000007  2.6924100000000002 25.6859800000000007