 K Cl 
 1.0000000000000000
    15.0000000000000000    0.0000000000000000    0.0000000000000000
     0.0000000000000000   15.0000000000000000    0.0000000000000000
     0.0000000000000000    0.0000000000000000   40.0000000000000000
  2  5
Cartesian
 10.5331499999999991  3.4725500000000000 19.4574299999999987
  2.4427400000000001  3.6056800000000000 15.2995699999999992
  0.258887 5.39054 2.14261
  6.1711 4.50659 5.65068
  3.04397 7.06139 0.0378496
  1.54616 3.60082 18.5048
  1.1987 3.00192 9.65708





