 K Cl 
 1.0000000000000000
    15.0000000000000000    0.0000000000000000    0.0000000000000000
     0.0000000000000000   15.0000000000000000    0.0000000000000000
     0.0000000000000000    0.0000000000000000   40.0000000000000000
  40  40
Cartesian
 10.5331499999999991  3.4725500000000000 19.4574299999999987
  2.4427400000000001  3.6056800000000000 15.2995699999999992
  5.3217200000000000  7.0042900000000001 21.3453899999999983
 12.1486300000000007  2.6924100000000002 25.6859800000000007
  8.5054999999999996  4.9897600000000004 16.3153599999999983
  4.5770700000000000  7.5258599999999998 25.8881300000000003
  9.7927400000000002 14.7114799999999999 11.0293799999999997
 13.7148500000000002 14.7049699999999994 22.4145299999999992
  7.2176600000000004  2.3263500000000001 14.1806599999999996
 13.2692700000000006  6.1667800000000002 17.3567199999999993
  7.6737900000000003  9.4835700000000003 18.1080800000000011
 12.9058399999999995  2.2981300000000000 13.0597200000000004
  4.1181999999999999 14.0889699999999998 22.9919399999999996
  6.0064299999999999 13.9495600000000000 16.5205300000000008
  2.8544999999999998  9.8679799999999993 22.6290300000000002
 10.5580400000000001 10.3757300000000008 15.2676900000000000
 14.3036600000000007 12.1528500000000008 12.6974499999999999
  3.4165399999999999  7.2655300000000000 17.0737600000000000
  9.9160400000000006 14.7427600000000005 24.4820500000000010
  2.4842300000000002  3.1990900000000000 25.4201100000000011
  6.5799599999999998  3.6957900000000001 24.3707299999999982
 14.4836899999999993  9.5833300000000001 15.1433300000000006
 11.9433900000000008 10.4212900000000008 25.2886400000000009
  9.2040100000000002  6.2954299999999996 26.6700799999999987
  2.1625600000000000 13.7146699999999999 16.5053799999999988
  5.6254200000000001 11.2444400000000009 13.0559499999999993
  8.1786499999999993 10.1763399999999997 23.2182899999999997
  3.1739999999999999  6.7115099999999996 12.8852799999999998
  0.7432100000000000  2.2208800000000002 20.0884299999999989
  2.7113800000000001  1.0454300000000001 12.7683400000000002
 12.4181600000000003 10.2164599999999997 20.8219700000000003
 11.4972799999999999  0.3413300000000000 17.1181799999999988
 13.8812099999999994  5.6996000000000002 23.5010499999999993
 12.1472599999999993  5.9367099999999997 13.5380400000000005
  5.3315000000000001  2.3247000000000000 19.2340000000000018
  1.1407700000000001 10.0801400000000001 19.0742300000000000
  9.6096599999999999  5.8118999999999996 22.6787600000000005
  6.8095200000000000 12.0054400000000001 26.6891800000000003
  8.6666500000000006 14.7660599999999995 21.1666899999999991
  1.0448400000000000  6.7813800000000004 20.4695900000000002
  5.1369899999999999  5.2990100000000000 14.8018900000000002
  5.2084700000000002 10.3509899999999995 24.6577500000000001
  9.1652600000000000  3.0578699999999999 25.7292099999999984
 11.0114800000000006 12.6007899999999999 22.6384499999999989
  3.8927100000000001  2.1581800000000002 22.2002500000000005
  8.4146300000000007  7.9864100000000002 20.9361400000000017
  8.1813199999999995 14.3260400000000008 13.4171899999999997
  4.7032800000000003  4.5565499999999997 26.6940600000000003
  9.5165900000000008 11.2286900000000003 26.6954099999999990
  6.2254399999999999  5.9512900000000002 18.9306500000000000
  1.4193600000000000 13.8642800000000008 13.7273200000000006
  6.9713599999999998  6.7692899999999998 24.2637399999999985
  2.2357300000000002 10.5172100000000004 16.2029199999999989
  9.5832899999999999  2.9033899999999999 12.1445100000000004
 13.3780300000000008  5.7266300000000001 20.4797300000000000
  6.8431600000000001 14.2804000000000002 24.4559500000000014
 12.6286500000000004  1.4723599999999999 20.0598799999999997
 10.1971100000000003  7.3475400000000004 17.2463000000000015
  4.6492500000000003  1.2032300000000000 14.9206400000000006
  9.1469699999999996 12.7983100000000007 19.1769099999999995
 13.7446000000000002  9.2300900000000006 23.5816300000000005
  2.3785599999999998  6.6700600000000003 23.2620299999999993
  4.0387399999999998  9.5133500000000009 19.8606200000000008
 12.5618800000000004  8.6540999999999997 12.9761500000000005
  0.2560900000000000  6.6543200000000002 14.5959199999999996
 12.2871400000000008 12.4562500000000007 15.3542299999999994
  6.4161900000000003 11.0983000000000001 15.9391099999999994
 13.7268299999999996  8.6398399999999995 18.4037700000000015
  8.2794699999999999  2.4866600000000001 17.7799900000000015
 12.3798499999999994  3.4759400000000000 16.0354700000000001
  8.4511699999999994  2.7554300000000000 21.4389199999999995
 13.0327099999999998 14.8785100000000003 11.0138200000000008
  2.2593700000000001  5.1087999999999996 18.7023100000000007
 12.6326300000000007 14.9469700000000003 25.6874499999999983
  2.9150200000000002 10.1837499999999999 12.2353199999999998
 11.4225800000000000  5.9540899999999999 25.2737599999999993
  1.2331000000000001 12.1843100000000000 22.3187600000000010
 14.1863799999999998  2.6300300000000001 23.3905299999999983
  1.1113800000000000  3.5547000000000000 12.7119099999999996
  3.2324299999999999  0.3483300000000000 18.8668399999999998

